1 168 126 51 7 56 148 108 179 114 119 8 133 199 124 59 63 10 88 55 24 159 58 30 110 139 135 197 106 50 62 113 152 54 194 184 102 134 107 178 53 67 146 158 93 41 147 164 26 116 39 69 70 85 186 190 90 23 21 6 100 112 17 95 49 3 138 28 44 65 175 15 153 61 115 81 171 87 98 66 150 4 18 166 91 5 120 40 196 173 141 99 161 25 77 57 140 0 128 11 83 84 198 92 174 96 27 162 131 22 52 104 125 94 14 31 187 195 78 16 193 167 136 97 86 105 118 37 180 142 111 123 191 109 156 170 129 68 33 12 36 149 122 155 34 29 188 137 103 64 127 79 48 45 46 13 177 42 38 20 43 117 151 163 157 101 71 185 182 75 80 154 19 121 144 132 130 76 143 74 165 145 183 32 60 2 176 72 35 47 73 160 9 189 181 172 169 192 89 82 

